cnf/map_5x5_30p_1.cnf
p cnf 25 37
-23 0
-21 0
-20 0
-19 0
-18 0
-16 0
-14 0
-13 0
-11 0
-10 0
-8 0
-7 0
-5 0
-3 0
-2 0
1 0
4 0
6 0
9 0
12 0
15 0
17 0
22 0
-24 -25 0
-24 -15 0
-15 -25 0
12 22 0
17 12 0
17 22 0
24 12 0
24 17 0
24 22 0
-24 -22 -17 0
24 17 22 0
24 25 15 0
-24 -22 -12 -17 0
24 17 12 22 0