maps/map_5x5_30p_1.txt
5 5
_,2,2,_,2
_,3,3,_,3
3,_,3,2,_
3,_,3,1,1
2,_,2,_,_
